experiments/21_JSA_experiments/solutions/scalability/imx8a/IN_10_8.json-ILP-IDLE-MAX.out.log
Using license file /home/benedond/gurobi.lic
Using gurobi.env file
Set parameter Threads to value 1
Academic license - for non-commercial use only
Changed value of parameter TimeLimit to 300.0
   Prev: inf  Min: 0.0  Max: inf  Default: inf
Gurobi Optimizer version 9.0.1 build v9.0.1rc0 (linux64)
Optimize a model with 240 rows, 210 columns and 828 nonzeros
Model fingerprint: 0xd7b7884a
Variable types: 10 continuous, 200 integer (200 binary)
Coefficient statistics:
  Matrix range     [1e+00, 5e+02]
  Objective range  [5e+01, 5e+02]
  Bounds range     [1e+00, 1e+00]
  RHS range        [1e+00, 5e+02]
Presolve removed 178 rows and 152 columns
Presolve time: 0.01s
Presolved: 62 rows, 58 columns, 294 nonzeros
Variable types: 5 continuous, 53 integer (53 binary)
Found heuristic solution: objective 1606.0000000
Found heuristic solution: objective 1796.0000000

Root relaxation: objective 1.848000e+03, 34 iterations, 0.00 seconds

    Nodes    |    Current Node    |     Objective Bounds      |     Work
 Expl Unexpl |  Obj  Depth IntInf | Incumbent    BestBd   Gap | It/Node Time

     0     0 1848.00000    0    7 1796.00000 1848.00000  2.90%     -    0s
     0     0 1848.00000    0    9 1796.00000 1848.00000  2.90%     -    0s
     0     0 1848.00000    0    2 1796.00000 1848.00000  2.90%     -    0s
     0     0 1848.00000    0   15 1796.00000 1848.00000  2.90%     -    0s
     0     0 1848.00000    0    8 1796.00000 1848.00000  2.90%     -    0s
     0     0 1848.00000    0   12 1796.00000 1848.00000  2.90%     -    0s
     0     0 1848.00000    0    2 1796.00000 1848.00000  2.90%     -    0s
     0     0 1848.00000    0    4 1796.00000 1848.00000  2.90%     -    0s
     0     0 1848.00000    0    6 1796.00000 1848.00000  2.90%     -    0s
     0     0 1848.00000    0    6 1796.00000 1848.00000  2.90%     -    0s
     0     2 1848.00000    0    6 1796.00000 1848.00000  2.90%     -    0s

Cutting planes:
  Cover: 2
  MIR: 4

Explored 22 nodes (298 simplex iterations) in 0.03 seconds
Thread count was 1 (of 4 available processors)

Solution count 2: 1796 1606 

Optimal solution found (tolerance 1.00e-04)
Best objective 1.796000000000e+03, best bound 1.796000000000e+03, gap 0.0000%
